1 51 2
-517 -655 -80 -281 -268 -975 -328 -926 -915 -883 -765 -703 -568 -93 -169 -371 -501 -453 -452 -179 -118 -384 -677 -620 -873 -375 -86 -801 -320 -988 -902 -996 -381 -190 -501 -138 -175 -12 -447 -373 -176 -538 -969 -349 -141 -565 -408 -124 -679 -415 0 
-442 -270 -924 -720 -785 -7 -719 -146 -153 -33 -305 -332 -372 -982 -854 -531 -487 -528 -647 -875 -785 -614 -374 -376 -67 -662 -968 -237 -751 -69 -150 -54 -519 -749 -494 -888 -737 -946 -645 -701 -749 -474 -25 -563 -922 -482 -576 -894 -322 -556 0 
985 1093 986 830 878 958 1095 1206 952 889 936 1176 793 1147 828 842 990 934 968 916 1033 836 1179 961 941 925 1126 1099 931 1012 1172 1222 980 962 908 957 900 920 1048 1210 728 979 937 824 1099 1243 978 1023 877 1166 1 
24789 
